Solver command line: ['C:\\Program Files\\IBM\\ILOG\\CPLEX_Studio2211\\cplex\\bin\\x64_win64\\cplex.exe']


Welcome to IBM(R) ILOG(R) CPLEX(R) Interactive Optimizer 22.1.1.0
  with Simplex, Mixed Integer & Barrier Optimizers
5725-A06 5725-A29 5724-Y48 5724-Y49 5724-Y54 5724-Y55 5655-Y21
Copyright IBM Corp. 1988, 2022.  All Rights Reserved.

Type 'help' for a list of available commands.
Type 'help' followed by a command name for more
information on commands.

CPLEX> Logfile 'cplex.log' closed.
Logfile 'C:\Users\wangy\Documents\GitHub\re_optimization\result_site_specific\tmpluut7w9d.cplex.log' open.
CPLEX> Problem 'C:\Users\wangy\Documents\GitHub\re_optimization\result_site_specific\tmpbtwa79fo.pyomo.lp' read.
Read time = 0.19 sec. (6.21 ticks)
CPLEX> Problem name         : C:\Users\wangy\Documents\GitHub\re_optimization\result_site_specific\tmpbtwa79fo.pyomo.lp
Objective sense      : Minimize
Variables            :   43845  [Nneg: 23381,  Free: 4400,  Binary: 4,
                                 Other: 16060]
Objective nonzeros   :      11
Linear constraints   :   64280  [Less: 35051,  Greater: 3,  Equal: 29226]
  Nonzeros           :  154946
  RHS nonzeros       :    4039

Variables            : Min LB: 0.000000         Max UB: 1.000000       
Objective nonzeros   : Min   : 1.000000         Max   : 1.000000       
Linear constraints   :
  Nonzeros           : Min   : 0.002451529      Max   : 100000.0       
  RHS nonzeros       : Min   : 0.04200000       Max   : 1000.000       
CPLEX> Version identifier: 22.1.1.0 | 2022-11-27 | 9160aff4d
Tried aggregator 3 times.
MIP Presolve eliminated 41361 rows and 22382 columns.
Aggregator did 7379 substitutions.
Reduced MIP has 15540 rows, 14084 columns, and 44859 nonzeros.
Reduced MIP has 2 binaries, 0 generals, 0 SOSs, and 0 indicators.
Presolve time = 0.11 sec. (134.72 ticks)
Found incumbent of value 164285.893537 after 0.16 sec. (156.65 ticks)
Probing time = 0.00 sec. (0.85 ticks)
Tried aggregator 1 time.
Detecting symmetries...
Reduced MIP has 15540 rows, 14084 columns, and 44859 nonzeros.
Reduced MIP has 2 binaries, 0 generals, 0 SOSs, and 0 indicators.
Presolve time = 0.03 sec. (26.69 ticks)
Probing time = 0.00 sec. (0.79 ticks)
MIP emphasis: balance optimality and feasibility.
MIP search method: dynamic search.
Parallel mode: deterministic, using up to 16 threads.
Root relaxation solution time = 0.42 sec. (430.44 ticks)

        Nodes                                         Cuts/
   Node  Left     Objective  IInf  Best Integer    Best Bound    ItCnt     Gap

*     0+    0                       164285.8935    -8294.5666           105.05%
*     0+    0                         4595.8093    -8294.5666           280.48%
      0     0     4591.6105     1     4595.8093     4591.6105       53    0.09%
*     0+    0                         4595.7339     4591.6105             0.09%
      0     0        cutoff           4595.7339                     60    0.00%
Elapsed time = 0.76 sec. (698.00 ticks, tree = 0.01 MB, solutions = 3)

Root node processing (before b&c):
  Real time             =    0.76 sec. (700.10 ticks)
Parallel b&c, 16 threads:
  Real time             =    0.00 sec. (0.00 ticks)
  Sync time (average)   =    0.00 sec.
  Wait time (average)   =    0.00 sec.
                          ------------
Total (root+branch&cut) =    0.76 sec. (700.10 ticks)

Solution pool: 3 solutions saved.

MIP - Integer optimal solution:  Objective =  4.5957339303e+03
Solution time =    0.76 sec.  Iterations = 60  Nodes = 0
Deterministic time = 700.22 ticks  (915.32 ticks/sec)

CPLEX> Incumbent solution written to file 'C:\Users\wangy\Documents\GitHub\re_optimization\result_site_specific\tmpl02vtcw3.cplex.sol'.
CPLEX> 
